c File: flat100_3_0.col
c
c SOURCE: Joseph Culberson (joe@cs.ualberta.ca)
c DESCRIPTION: Quasi-random coloring problem
c              generated with flatness = 0
c                             probability = 0.072
c                             known coloring = 3
c                             random seed = 1068
c              Creation Date:  Thu Jun  4 18:56:22 1998
c Maximum degree = 8 Minimum degree = 0
c p edge 100 239
c cnf created by edge2cnf
p cnf 300 1117
-1 -2 0
-1 -3 0
-2 -3 0
1 2 3 0
-4 -5 0
-4 -6 0
-5 -6 0
4 5 6 0
-7 -8 0
-7 -9 0
-8 -9 0
7 8 9 0
-10 -11 0
-10 -12 0
-11 -12 0
10 11 12 0
-13 -14 0
-13 -15 0
-14 -15 0
13 14 15 0
-16 -17 0
-16 -18 0
-17 -18 0
16 17 18 0
-19 -20 0
-19 -21 0
-20 -21 0
19 20 21 0
-22 -23 0
-22 -24 0
-23 -24 0
22 23 24 0
-25 -26 0
-25 -27 0
-26 -27 0
25 26 27 0
-28 -29 0
-28 -30 0
-29 -30 0
28 29 30 0
-31 -32 0
-31 -33 0
-32 -33 0
31 32 33 0
-34 -35 0
-34 -36 0
-35 -36 0
34 35 36 0
-37 -38 0
-37 -39 0
-38 -39 0
37 38 39 0
-40 -41 0
-40 -42 0
-41 -42 0
40 41 42 0
-43 -44 0
-43 -45 0
-44 -45 0
43 44 45 0
-46 -47 0
-46 -48 0
-47 -48 0
46 47 48 0
-49 -50 0
-49 -51 0
-50 -51 0
49 50 51 0
-52 -53 0
-52 -54 0
-53 -54 0
52 53 54 0
-55 -56 0
-55 -57 0
-56 -57 0
55 56 57 0
-58 -59 0
-58 -60 0
-59 -60 0
58 59 60 0
-61 -62 0
-61 -63 0
-62 -63 0
61 62 63 0
-64 -65 0
-64 -66 0
-65 -66 0
64 65 66 0
-67 -68 0
-67 -69 0
-68 -69 0
67 68 69 0
-70 -71 0
-70 -72 0
-71 -72 0
70 71 72 0
-73 -74 0
-73 -75 0
-74 -75 0
73 74 75 0
-76 -77 0
-76 -78 0
-77 -78 0
76 77 78 0
-79 -80 0
-79 -81 0
-80 -81 0
79 80 81 0
-82 -83 0
-82 -84 0
-83 -84 0
82 83 84 0
-85 -86 0
-85 -87 0
-86 -87 0
85 86 87 0
-88 -89 0
-88 -90 0
-89 -90 0
88 89 90 0
-91 -92 0
-91 -93 0
-92 -93 0
91 92 93 0
-94 -95 0
-94 -96 0
-95 -96 0
94 95 96 0
-97 -98 0
-97 -99 0
-98 -99 0
97 98 99 0
-100 -101 0
-100 -102 0
-101 -102 0
100 101 102 0
-103 -104 0
-103 -105 0
-104 -105 0
103 104 105 0
-106 -107 0
-106 -108 0
-107 -108 0
106 107 108 0
-109 -110 0
-109 -111 0
-110 -111 0
109 110 111 0
-112 -113 0
-112 -114 0
-113 -114 0
112 113 114 0
-115 -116 0
-115 -117 0
-116 -117 0
115 116 117 0
-118 -119 0
-118 -120 0
-119 -120 0
118 119 120 0
-121 -122 0
-121 -123 0
-122 -123 0
121 122 123 0
-124 -125 0
-124 -126 0
-125 -126 0
124 125 126 0
-127 -128 0
-127 -129 0
-128 -129 0
127 128 129 0
-130 -131 0
-130 -132 0
-131 -132 0
130 131 132 0
-133 -134 0
-133 -135 0
-134 -135 0
133 134 135 0
-136 -137 0
-136 -138 0
-137 -138 0
136 137 138 0
-139 -140 0
-139 -141 0
-140 -141 0
139 140 141 0
-142 -143 0
-142 -144 0
-143 -144 0
142 143 144 0
-145 -146 0
-145 -147 0
-146 -147 0
145 146 147 0
-148 -149 0
-148 -150 0
-149 -150 0
148 149 150 0
-151 -152 0
-151 -153 0
-152 -153 0
151 152 153 0
-154 -155 0
-154 -156 0
-155 -156 0
154 155 156 0
-157 -158 0
-157 -159 0
-158 -159 0
157 158 159 0
-160 -161 0
-160 -162 0
-161 -162 0
160 161 162 0
-163 -164 0
-163 -165 0
-164 -165 0
163 164 165 0
-166 -167 0
-166 -168 0
-167 -168 0
166 167 168 0
-169 -170 0
-169 -171 0
-170 -171 0
169 170 171 0
-172 -173 0
-172 -174 0
-173 -174 0
172 173 174 0
-175 -176 0
-175 -177 0
-176 -177 0
175 176 177 0
-178 -179 0
-178 -180 0
-179 -180 0
178 179 180 0
-181 -182 0
-181 -183 0
-182 -183 0
181 182 183 0
-184 -185 0
-184 -186 0
-185 -186 0
184 185 186 0
-187 -188 0
-187 -189 0
-188 -189 0
187 188 189 0
-190 -191 0
-190 -192 0
-191 -192 0
190 191 192 0
-193 -194 0
-193 -195 0
-194 -195 0
193 194 195 0
-196 -197 0
-196 -198 0
-197 -198 0
196 197 198 0
-199 -200 0
-199 -201 0
-200 -201 0
199 200 201 0
-202 -203 0
-202 -204 0
-203 -204 0
202 203 204 0
-205 -206 0
-205 -207 0
-206 -207 0
205 206 207 0
-208 -209 0
-208 -210 0
-209 -210 0
208 209 210 0
-211 -212 0
-211 -213 0
-212 -213 0
211 212 213 0
-214 -215 0
-214 -216 0
-215 -216 0
214 215 216 0
-217 -218 0
-217 -219 0
-218 -219 0
217 218 219 0
-220 -221 0
-220 -222 0
-221 -222 0
220 221 222 0
-223 -224 0
-223 -225 0
-224 -225 0
223 224 225 0
-226 -227 0
-226 -228 0
-227 -228 0
226 227 228 0
-229 -230 0
-229 -231 0
-230 -231 0
229 230 231 0
-232 -233 0
-232 -234 0
-233 -234 0
232 233 234 0
-235 -236 0
-235 -237 0
-236 -237 0
235 236 237 0
-238 -239 0
-238 -240 0
-239 -240 0
238 239 240 0
-241 -242 0
-241 -243 0
-242 -243 0
241 242 243 0
-244 -245 0
-244 -246 0
-245 -246 0
244 245 246 0
-247 -248 0
-247 -249 0
-248 -249 0
247 248 249 0
-250 -251 0
-250 -252 0
-251 -252 0
250 251 252 0
-253 -254 0
-253 -255 0
-254 -255 0
253 254 255 0
-256 -257 0
-256 -258 0
-257 -258 0
256 257 258 0
-259 -260 0
-259 -261 0
-260 -261 0
259 260 261 0
-262 -263 0
-262 -264 0
-263 -264 0
262 263 264 0
-265 -266 0
-265 -267 0
-266 -267 0
265 266 267 0
-268 -269 0
-268 -270 0
-269 -270 0
268 269 270 0
-271 -272 0
-271 -273 0
-272 -273 0
271 272 273 0
-274 -275 0
-274 -276 0
-275 -276 0
274 275 276 0
-277 -278 0
-277 -279 0
-278 -279 0
277 278 279 0
-280 -281 0
-280 -282 0
-281 -282 0
280 281 282 0
-283 -284 0
-283 -285 0
-284 -285 0
283 284 285 0
-286 -287 0
-286 -288 0
-287 -288 0
286 287 288 0
-289 -290 0
-289 -291 0
-290 -291 0
289 290 291 0
-292 -293 0
-292 -294 0
-293 -294 0
292 293 294 0
-295 -296 0
-295 -297 0
-296 -297 0
295 296 297 0
-298 -299 0
-298 -300 0
-299 -300 0
298 299 300 0
-103 -1 0
-104 -2 0
-105 -3 0
-130 -1 0
-131 -2 0
-132 -3 0
-148 -1 0
-149 -2 0
-150 -3 0
-238 -1 0
-239 -2 0
-240 -3 0
-259 -1 0
-260 -2 0
-261 -3 0
-112 -4 0
-113 -5 0
-114 -6 0
-151 -4 0
-152 -5 0
-153 -6 0
-172 -4 0
-173 -5 0
-174 -6 0
-193 -4 0
-194 -5 0
-195 -6 0
-220 -4 0
-221 -5 0
-222 -6 0
-229 -4 0
-230 -5 0
-231 -6 0
-256 -4 0
-257 -5 0
-258 -6 0
-199 -10 0
-200 -11 0
-201 -12 0
-205 -10 0
-206 -11 0
-207 -12 0
-217 -10 0
-218 -11 0
-219 -12 0
-142 -13 0
-143 -14 0
-144 -15 0
-160 -13 0
-161 -14 0
-162 -15 0
-205 -13 0
-206 -14 0
-207 -15 0
-226 -13 0
-227 -14 0
-228 -15 0
-232 -13 0
-233 -14 0
-234 -15 0
-181 -16 0
-182 -17 0
-183 -18 0
-187 -16 0
-188 -17 0
-189 -18 0
-262 -16 0
-263 -17 0
-264 -18 0
-175 -19 0
-176 -20 0
-177 -21 0
-193 -19 0
-194 -20 0
-195 -21 0
-214 -19 0
-215 -20 0
-216 -21 0
-277 -19 0
-278 -20 0
-279 -21 0
-295 -19 0
-296 -20 0
-297 -21 0
-118 -22 0
-119 -23 0
-120 -24 0
-133 -22 0
-134 -23 0
-135 -24 0
-157 -22 0
-158 -23 0
-159 -24 0
-181 -22 0
-182 -23 0
-183 -24 0
-289 -22 0
-290 -23 0
-291 -24 0
-208 -25 0
-209 -26 0
-210 -27 0
-253 -25 0
-254 -26 0
-255 -27 0
-178 -28 0
-179 -29 0
-180 -30 0
-238 -28 0
-239 -29 0
-240 -30 0
-106 -31 0
-107 -32 0
-108 -33 0
-121 -31 0
-122 -32 0
-123 -33 0
-148 -31 0
-149 -32 0
-150 -33 0
-199 -31 0
-200 -32 0
-201 -33 0
-226 -31 0
-227 -32 0
-228 -33 0
-283 -31 0
-284 -32 0
-285 -33 0
-289 -31 0
-290 -32 0
-291 -33 0
-295 -31 0
-296 -32 0
-297 -33 0
-103 -34 0
-104 -35 0
-105 -36 0
-106 -34 0
-107 -35 0
-108 -36 0
-157 -34 0
-158 -35 0
-159 -36 0
-163 -34 0
-164 -35 0
-165 -36 0
-286 -34 0
-287 -35 0
-288 -36 0
-160 -37 0
-161 -38 0
-162 -39 0
-172 -37 0
-173 -38 0
-174 -39 0
-175 -37 0
-176 -38 0
-177 -39 0
-220 -37 0
-221 -38 0
-222 -39 0
-232 -37 0
-233 -38 0
-234 -39 0
-247 -37 0
-248 -38 0
-249 -39 0
-277 -37 0
-278 -38 0
-279 -39 0
-109 -40 0
-110 -41 0
-111 -42 0
-112 -40 0
-113 -41 0
-114 -42 0
-121 -40 0
-122 -41 0
-123 -42 0
-169 -40 0
-170 -41 0
-171 -42 0
-229 -40 0
-230 -41 0
-231 -42 0
-250 -40 0
-251 -41 0
-252 -42 0
-133 -43 0
-134 -44 0
-135 -45 0
-136 -43 0
-137 -44 0
-138 -45 0
-145 -43 0
-146 -44 0
-147 -45 0
-166 -43 0
-167 -44 0
-168 -45 0
-241 -43 0
-242 -44 0
-243 -45 0
-244 -43 0
-245 -44 0
-246 -45 0
-130 -46 0
-131 -47 0
-132 -48 0
-136 -46 0
-137 -47 0
-138 -48 0
-148 -46 0
-149 -47 0
-150 -48 0
-196 -46 0
-197 -47 0
-198 -48 0
-202 -46 0
-203 -47 0
-204 -48 0
-265 -46 0
-266 -47 0
-267 -48 0
-286 -46 0
-287 -47 0
-288 -48 0
-292 -46 0
-293 -47 0
-294 -48 0
-118 -49 0
-119 -50 0
-120 -51 0
-163 -49 0
-164 -50 0
-165 -51 0
-169 -49 0
-170 -50 0
-171 -51 0
-175 -49 0
-176 -50 0
-177 -51 0
-202 -49 0
-203 -50 0
-204 -51 0
-271 -49 0
-272 -50 0
-273 -51 0
-274 -49 0
-275 -50 0
-276 -51 0
-145 -52 0
-146 -53 0
-147 -54 0
-166 -52 0
-167 -53 0
-168 -54 0
-208 -52 0
-209 -53 0
-210 -54 0
-223 -52 0
-224 -53 0
-225 -54 0
-247 -52 0
-248 -53 0
-249 -54 0
-274 -52 0
-275 -53 0
-276 -54 0
-103 -55 0
-104 -56 0
-105 -57 0
-193 -55 0
-194 -56 0
-195 -57 0
-199 -55 0
-200 -56 0
-201 -57 0
-289 -55 0
-290 -56 0
-291 -57 0
-127 -58 0
-128 -59 0
-129 -60 0
-145 -58 0
-146 -59 0
-147 -60 0
-160 -58 0
-161 -59 0
-162 -60 0
-217 -58 0
-218 -59 0
-219 -60 0
-136 -61 0
-137 -62 0
-138 -63 0
-193 -61 0
-194 -62 0
-195 -63 0
-202 -61 0
-203 -62 0
-204 -63 0
-214 -61 0
-215 -62 0
-216 -63 0
-241 -61 0
-242 -62 0
-243 -63 0
-286 -61 0
-287 -62 0
-288 -63 0
-109 -64 0
-110 -65 0
-111 -66 0
-184 -64 0
-185 -65 0
-186 -66 0
-205 -64 0
-206 -65 0
-207 -66 0
-223 -64 0
-224 -65 0
-225 -66 0
-274 -64 0
-275 -65 0
-276 -66 0
-130 -67 0
-131 -68 0
-132 -69 0
-178 -67 0
-179 -68 0
-180 -69 0
-211 -67 0
-212 -68 0
-213 -69 0
-226 -67 0
-227 -68 0
-228 -69 0
-238 -67 0
-239 -68 0
-240 -69 0
-244 -67 0
-245 -68 0
-246 -69 0
-139 -70 0
-140 -71 0
-141 -72 0
-157 -70 0
-158 -71 0
-159 -72 0
-184 -70 0
-185 -71 0
-186 -72 0
-205 -70 0
-206 -71 0
-207 -72 0
-238 -70 0
-239 -71 0
-240 -72 0
-118 -73 0
-119 -74 0
-120 -75 0
-130 -73 0
-131 -74 0
-132 -75 0
-226 -73 0
-227 -74 0
-228 -75 0
-151 -76 0
-152 -77 0
-153 -78 0
-178 -79 0
-179 -80 0
-180 -81 0
-190 -79 0
-191 -80 0
-192 -81 0
-202 -79 0
-203 -80 0
-204 -81 0
-223 -79 0
-224 -80 0
-225 -81 0
-229 -79 0
-230 -80 0
-231 -81 0
-241 -79 0
-242 -80 0
-243 -81 0
-115 -82 0
-116 -83 0
-117 -84 0
-163 -82 0
-164 -83 0
-165 -84 0
-223 -82 0
-224 -83 0
-225 -84 0
-250 -82 0
-251 -83 0
-252 -84 0
-262 -82 0
-263 -83 0
-264 -84 0
-268 -82 0
-269 -83 0
-270 -84 0
-106 -85 0
-107 -86 0
-108 -87 0
-181 -85 0
-182 -86 0
-183 -87 0
-256 -88 0
-257 -89 0
-258 -90 0
-298 -88 0
-299 -89 0
-300 -90 0
-166 -91 0
-167 -92 0
-168 -93 0
-208 -91 0
-209 -92 0
-210 -93 0
-235 -91 0
-236 -92 0
-237 -93 0
-277 -91 0
-278 -92 0
-279 -93 0
-295 -91 0
-296 -92 0
-297 -93 0
-133 -94 0
-134 -95 0
-135 -96 0
-244 -94 0
-245 -95 0
-246 -96 0
-259 -94 0
-260 -95 0
-261 -96 0
-277 -94 0
-278 -95 0
-279 -96 0
-106 -97 0
-107 -98 0
-108 -99 0
-121 -97 0
-122 -98 0
-123 -99 0
-208 -97 0
-209 -98 0
-210 -99 0
-235 -97 0
-236 -98 0
-237 -99 0
-250 -97 0
-251 -98 0
-252 -99 0
-286 -97 0
-287 -98 0
-288 -99 0
-103 -100 0
-104 -101 0
-105 -102 0
-160 -100 0
-161 -101 0
-162 -102 0
-166 -100 0
-167 -101 0
-168 -102 0
-190 -100 0
-191 -101 0
-192 -102 0
-265 -100 0
-266 -101 0
-267 -102 0
-289 -100 0
-290 -101 0
-291 -102 0
-265 -103 0
-266 -104 0
-267 -105 0
-271 -103 0
-272 -104 0
-273 -105 0
-283 -103 0
-284 -104 0
-285 -105 0
-259 -106 0
-260 -107 0
-261 -108 0
-277 -106 0
-278 -107 0
-279 -108 0
-286 -109 0
-287 -110 0
-288 -111 0
-247 -112 0
-248 -113 0
-249 -114 0
-262 -115 0
-263 -116 0
-264 -117 0
-220 -118 0
-221 -119 0
-222 -120 0
-226 -118 0
-227 -119 0
-228 -120 0
-256 -118 0
-257 -119 0
-258 -120 0
-217 -121 0
-218 -122 0
-219 -123 0
-235 -121 0
-236 -122 0
-237 -123 0
-238 -121 0
-239 -122 0
-240 -123 0
-232 -124 0
-233 -125 0
-234 -126 0
-250 -127 0
-251 -128 0
-252 -129 0
-286 -127 0
-287 -128 0
-288 -129 0
-223 -130 0
-224 -131 0
-225 -132 0
-256 -133 0
-257 -134 0
-258 -135 0
-268 -133 0
-269 -134 0
-270 -135 0
-259 -136 0
-260 -137 0
-261 -138 0
-265 -136 0
-266 -137 0
-267 -138 0
-283 -136 0
-284 -137 0
-285 -138 0
-298 -136 0
-299 -137 0
-300 -138 0
-217 -139 0
-218 -140 0
-219 -141 0
-235 -139 0
-236 -140 0
-237 -141 0
-280 -139 0
-281 -140 0
-282 -141 0
-292 -139 0
-293 -140 0
-294 -141 0
-211 -142 0
-212 -143 0
-213 -144 0
-286 -142 0
-287 -143 0
-288 -144 0
-241 -145 0
-242 -146 0
-243 -147 0
-247 -145 0
-248 -146 0
-249 -147 0
-247 -148 0
-248 -149 0
-249 -150 0
-295 -148 0
-296 -149 0
-297 -150 0
-223 -151 0
-224 -152 0
-225 -153 0
-235 -151 0
-236 -152 0
-237 -153 0
-268 -151 0
-269 -152 0
-270 -153 0
-295 -151 0
-296 -152 0
-297 -153 0
-202 -154 0
-203 -155 0
-204 -156 0
-265 -154 0
-266 -155 0
-267 -156 0
-274 -154 0
-275 -155 0
-276 -156 0
-235 -157 0
-236 -158 0
-237 -159 0
-238 -157 0
-239 -158 0
-240 -159 0
-298 -157 0
-299 -158 0
-300 -159 0
-229 -160 0
-230 -161 0
-231 -162 0
-250 -160 0
-251 -161 0
-252 -162 0
-277 -160 0
-278 -161 0
-279 -162 0
-226 -163 0
-227 -164 0
-228 -165 0
-268 -163 0
-269 -164 0
-270 -165 0
-280 -163 0
-281 -164 0
-282 -165 0
-292 -163 0
-293 -164 0
-294 -165 0
-244 -166 0
-245 -167 0
-246 -168 0
-295 -166 0
-296 -167 0
-297 -168 0
-241 -169 0
-242 -170 0
-243 -171 0
-268 -169 0
-269 -170 0
-270 -171 0
-274 -169 0
-275 -170 0
-276 -171 0
-205 -172 0
-206 -173 0
-207 -174 0
-244 -172 0
-245 -173 0
-246 -174 0
-250 -172 0
-251 -173 0
-252 -174 0
-265 -172 0
-266 -173 0
-267 -174 0
-205 -175 0
-206 -176 0
-207 -177 0
-277 -175 0
-278 -176 0
-279 -177 0
-298 -175 0
-299 -176 0
-300 -177 0
-250 -178 0
-251 -179 0
-252 -180 0
-229 -181 0
-230 -182 0
-231 -183 0
-286 -181 0
-287 -182 0
-288 -183 0
-274 -184 0
-275 -185 0
-276 -186 0
-238 -190 0
-239 -191 0
-240 -192 0
-289 -190 0
-290 -191 0
-291 -192 0
-202 -193 0
-203 -194 0
-204 -195 0
-229 -193 0
-230 -194 0
-231 -195 0
-247 -193 0
-248 -194 0
-249 -195 0
-298 -193 0
-299 -194 0
-300 -195 0
-244 -196 0
-245 -197 0
-246 -198 0
-253 -196 0
-254 -197 0
-255 -198 0
-295 -196 0
-296 -197 0
-297 -198 0
-238 -199 0
-239 -200 0
-240 -201 0
-244 -199 0
-245 -200 0
-246 -201 0
